Minimize
 obj: + 235.1 x_user1_load0_hour0 + 226.6 x_user1_load0_hour1 
 + 213.9 x_user1_load0_hour2 + 213.4 x_user1_load0_hour3 
 + 205.1 x_user1_load0_hour4 + 194.6 x_user1_load0_hour5 
 + 179.9 x_user1_load0_hour6 + 175.4 x_user1_load0_hour7 
 + 173.1 x_user1_load0_hour8 + 164.6 x_user1_load0_hour9 
 + 159.9 x_user1_load0_hour10 + 152.4 x_user1_load0_hour11 
 + 146.1 x_user1_load0_hour12 + 137.6 x_user1_load0_hour13 
 + 239.2 x_user1_load1_hour0 + 221.6 x_user1_load1_hour1 
 + 215.8 x_user1_load1_hour2 + 212.4 x_user1_load1_hour3 
 + 209.2 x_user1_load1_hour4 + 191.6 x_user1_load1_hour5 
 + 177.8 x_user1_load1_hour6 + 178.4 x_user1_load1_hour7 
 + 171.2 x_user1_load1_hour8 + 165.6 x_user1_load1_hour9 
 + 159.8 x_user1_load1_hour10 + 152.4 x_user1_load1_hour11 
 + 145.2 x_user1_load1_hour12 + 141.6 x_user1_load1_hour13 
 + 123.8 x_user1_load1_hour14 + 270.8 x_user1_load2_hour0 
 + 267.1 x_user1_load2_hour1 + 248.2 x_user1_load2_hour2 
 + 249.4 x_user1_load2_hour3 + 235.8 x_user1_load2_hour4 
 + 228.1 x_user1_load2_hour5 + 211.2 x_user1_load2_hour6 
 + 202.4 x_user1_load2_hour7 + 202.8 x_user1_load2_hour8 
 + 191.1 x_user1_load2_hour9 + 186.2 x_user1_load2_hour10 
 + 177.4 x_user1_load2_hour11 + 170.8 x_user1_load2_hour12 
 + 157.1 x_user1_load2_hour13 + 155.3 x_user1_load3_hour0 
 + 151.3 x_user1_load3_hour1 + 142.2 x_user1_load3_hour2 
 + 142.2 x_user1_load3_hour3 + 135.3 x_user1_load3_hour4 
 + 129.3 x_user1_load3_hour5 + 120.2 x_user1_load3_hour6 
 + 116.2 x_user1_load3_hour7 + 115.3 x_user1_load3_hour8 
 + 109.3 x_user1_load3_hour9 + 106.2 x_user1_load3_hour10 
 + 101.2 x_user1_load3_hour11 + 97.3 x_user1_load3_hour12 
 + 90.3 x_user1_load3_hour13 + 159.8 x_user1_load4_hour0 
 + 154.9 x_user1_load4_hour1 + 142.7 x_user1_load4_hour2 
 + 143.6 x_user1_load4_hour3 + 139.8 x_user1_load4_hour4 
 + 134.9 x_user1_load4_hour5 + 120.7 x_user1_load4_hour6 
 + 117.6 x_user1_load4_hour7 + 117.8 x_user1_load4_hour8 
 + 110.9 x_user1_load4_hour9 + 108.7 x_user1_load4_hour10 
 + 103.6 x_user1_load4_hour11 + 98.8 x_user1_load4_hour12 
 + 94.9 x_user1_load4_hour13 + 89.7 x_user1_load4_hour14 
 + 411.5 x_user1_load5_hour0 + 405.1 x_user1_load5_hour1 
 + 370 x_user1_load5_hour2 + 361.9 x_user1_load5_hour3 
 + 354.5 x_user1_load5_hour4 + 340.1 x_user1_load5_hour5 
 + 319 x_user1_load5_hour6 + 306.9 x_user1_load5_hour7 
 + 301.5 x_user1_load5_hour8 + 285.1 x_user1_load5_hour9 
 + 279 x_user1_load5_hour10 + 253.9 x_user1_load5_hour11 
 + 159.8 x_user1_load6_hour0 + 154.9 x_user1_load6_hour1 
 + 142.7 x_user1_load6_hour2 + 143.6 x_user1_load6_hour3 
 + 139.8 x_user1_load6_hour4 + 134.9 x_user1_load6_hour5 
 + 120.7 x_user1_load6_hour6 + 117.6 x_user1_load6_hour7 
 + 117.8 x_user1_load6_hour8 + 110.9 x_user1_load6_hour9 
 + 108.7 x_user1_load6_hour10 + 103.6 x_user1_load6_hour11 
 + 98.8 x_user1_load6_hour12 + 94.9 x_user1_load6_hour13 
 + 89.7 x_user1_load6_hour14 + 159.4 x_user1_load7_hour0 
 + 146.3 x_user1_load7_hour1 + 144.1 x_user1_load7_hour2 
 + 141.2 x_user1_load7_hour3 + 139.4 x_user1_load7_hour4 
 + 126.3 x_user1_load7_hour5 + 118.1 x_user1_load7_hour6 
 + 119.2 x_user1_load7_hour7 + 113.4 x_user1_load7_hour8 
 + 110.3 x_user1_load7_hour9 + 106.1 x_user1_load7_hour10 
 + 101.2 x_user1_load7_hour11 + 96.4 x_user1_load7_hour12 
 + 94.3 x_user1_load7_hour13 + 81.1 x_user1_load7_hour14 

Subject To 
 load_load0_scheduled: + 1 x_user1_load0_hour0 + 1 x_user1_load0_hour1 
 + 1 x_user1_load0_hour2 + 1 x_user1_load0_hour3 + 1 x_user1_load0_hour4 
 + 1 x_user1_load0_hour5 + 1 x_user1_load0_hour6 + 1 x_user1_load0_hour7 
 + 1 x_user1_load0_hour8 + 1 x_user1_load0_hour9 + 1 x_user1_load0_hour10 
 + 1 x_user1_load0_hour11 + 1 x_user1_load0_hour12 + 1 x_user1_load0_hour13 
  = 1.0
 load_load1_scheduled: + 1 x_user1_load1_hour0 + 1 x_user1_load1_hour1 
 + 1 x_user1_load1_hour2 + 1 x_user1_load1_hour3 + 1 x_user1_load1_hour4 
 + 1 x_user1_load1_hour5 + 1 x_user1_load1_hour6 + 1 x_user1_load1_hour7 
 + 1 x_user1_load1_hour8 + 1 x_user1_load1_hour9 + 1 x_user1_load1_hour10 
 + 1 x_user1_load1_hour11 + 1 x_user1_load1_hour12 + 1 x_user1_load1_hour13 
 + 1 x_user1_load1_hour14  = 1.0
 load_load2_scheduled: + 1 x_user1_load2_hour0 + 1 x_user1_load2_hour1 
 + 1 x_user1_load2_hour2 + 1 x_user1_load2_hour3 + 1 x_user1_load2_hour4 
 + 1 x_user1_load2_hour5 + 1 x_user1_load2_hour6 + 1 x_user1_load2_hour7 
 + 1 x_user1_load2_hour8 + 1 x_user1_load2_hour9 + 1 x_user1_load2_hour10 
 + 1 x_user1_load2_hour11 + 1 x_user1_load2_hour12 + 1 x_user1_load2_hour13 
  = 1.0
 load_load3_scheduled: + 1 x_user1_load3_hour0 + 1 x_user1_load3_hour1 
 + 1 x_user1_load3_hour2 + 1 x_user1_load3_hour3 + 1 x_user1_load3_hour4 
 + 1 x_user1_load3_hour5 + 1 x_user1_load3_hour6 + 1 x_user1_load3_hour7 
 + 1 x_user1_load3_hour8 + 1 x_user1_load3_hour9 + 1 x_user1_load3_hour10 
 + 1 x_user1_load3_hour11 + 1 x_user1_load3_hour12 + 1 x_user1_load3_hour13 
  = 1.0
 load_load4_scheduled: + 1 x_user1_load4_hour0 + 1 x_user1_load4_hour1 
 + 1 x_user1_load4_hour2 + 1 x_user1_load4_hour3 + 1 x_user1_load4_hour4 
 + 1 x_user1_load4_hour5 + 1 x_user1_load4_hour6 + 1 x_user1_load4_hour7 
 + 1 x_user1_load4_hour8 + 1 x_user1_load4_hour9 + 1 x_user1_load4_hour10 
 + 1 x_user1_load4_hour11 + 1 x_user1_load4_hour12 + 1 x_user1_load4_hour13 
 + 1 x_user1_load4_hour14  = 1.0
 load_load5_scheduled: + 1 x_user1_load5_hour0 + 1 x_user1_load5_hour1 
 + 1 x_user1_load5_hour2 + 1 x_user1_load5_hour3 + 1 x_user1_load5_hour4 
 + 1 x_user1_load5_hour5 + 1 x_user1_load5_hour6 + 1 x_user1_load5_hour7 
 + 1 x_user1_load5_hour8 + 1 x_user1_load5_hour9 + 1 x_user1_load5_hour10 
 + 1 x_user1_load5_hour11  = 1.0
 load_load6_scheduled: + 1 x_user1_load6_hour0 + 1 x_user1_load6_hour1 
 + 1 x_user1_load6_hour2 + 1 x_user1_load6_hour3 + 1 x_user1_load6_hour4 
 + 1 x_user1_load6_hour5 + 1 x_user1_load6_hour6 + 1 x_user1_load6_hour7 
 + 1 x_user1_load6_hour8 + 1 x_user1_load6_hour9 + 1 x_user1_load6_hour10 
 + 1 x_user1_load6_hour11 + 1 x_user1_load6_hour12 + 1 x_user1_load6_hour13 
 + 1 x_user1_load6_hour14  = 1.0
 load_load7_scheduled: + 1 x_user1_load7_hour0 + 1 x_user1_load7_hour1 
 + 1 x_user1_load7_hour2 + 1 x_user1_load7_hour3 + 1 x_user1_load7_hour4 
 + 1 x_user1_load7_hour5 + 1 x_user1_load7_hour6 + 1 x_user1_load7_hour7 
 + 1 x_user1_load7_hour8 + 1 x_user1_load7_hour9 + 1 x_user1_load7_hour10 
 + 1 x_user1_load7_hour11 + 1 x_user1_load7_hour12 + 1 x_user1_load7_hour13 
 + 1 x_user1_load7_hour14  = 1.0
 MaxLoadConnection_user1_0: + 3 x_user1_load0_hour0 + 2 x_user1_load1_hour0 
 + 4 x_user1_load2_hour0 + 2 x_user1_load3_hour0 + 3 x_user1_load4_hour0 
 + 4 x_user1_load5_hour0 + 3 x_user1_load6_hour0 + 1 x_user1_load7_hour0 
  <= 4.0
 MaxLoadConnection_user1_1: + 3 x_user1_load0_hour1 + 2 x_user1_load0_hour0 
 + 2 x_user1_load1_hour1 + 4 x_user1_load1_hour0 + 4 x_user1_load2_hour1 
 + 1 x_user1_load2_hour0 + 2 x_user1_load3_hour1 + 1 x_user1_load3_hour0 
 + 3 x_user1_load4_hour1 + 1 x_user1_load4_hour0 + 4 x_user1_load5_hour1 
 + 1 x_user1_load5_hour0 + 3 x_user1_load6_hour1 + 1 x_user1_load6_hour0 
 + 1 x_user1_load7_hour1 + 3 x_user1_load7_hour0  <= 4.0
 MaxLoadConnection_user1_2: + 3 x_user1_load0_hour2 + 2 x_user1_load0_hour1 
 + 1 x_user1_load0_hour0 + 2 x_user1_load1_hour2 + 4 x_user1_load1_hour1 
 + 4 x_user1_load2_hour2 + 1 x_user1_load2_hour1 + 2 x_user1_load2_hour0 
 + 2 x_user1_load3_hour2 + 1 x_user1_load3_hour1 + 1 x_user1_load3_hour0 
 + 3 x_user1_load4_hour2 + 1 x_user1_load4_hour1 + 4 x_user1_load5_hour2 
 + 1 x_user1_load5_hour1 + 1 x_user1_load5_hour0 + 3 x_user1_load6_hour2 
 + 1 x_user1_load6_hour1 + 1 x_user1_load7_hour2 + 3 x_user1_load7_hour1 
  <= 4.0
 MaxLoadConnection_user1_3: + 3 x_user1_load0_hour3 + 2 x_user1_load0_hour2 
 + 1 x_user1_load0_hour1 + 2 x_user1_load1_hour3 + 4 x_user1_load1_hour2 
 + 4 x_user1_load2_hour3 + 1 x_user1_load2_hour2 + 2 x_user1_load2_hour1 
 + 2 x_user1_load3_hour3 + 1 x_user1_load3_hour2 + 1 x_user1_load3_hour1 
 + 3 x_user1_load4_hour3 + 1 x_user1_load4_hour2 + 4 x_user1_load5_hour3 
 + 1 x_user1_load5_hour2 + 1 x_user1_load5_hour1 + 1 x_user1_load5_hour0 
 + 3 x_user1_load6_hour3 + 1 x_user1_load6_hour2 + 1 x_user1_load7_hour3 
 + 3 x_user1_load7_hour2  <= 4.0
 MaxLoadConnection_user1_4: + 3 x_user1_load0_hour4 + 2 x_user1_load0_hour3 
 + 1 x_user1_load0_hour2 + 2 x_user1_load1_hour4 + 4 x_user1_load1_hour3 
 + 4 x_user1_load2_hour4 + 1 x_user1_load2_hour3 + 2 x_user1_load2_hour2 
 + 2 x_user1_load3_hour4 + 1 x_user1_load3_hour3 + 1 x_user1_load3_hour2 
 + 3 x_user1_load4_hour4 + 1 x_user1_load4_hour3 + 4 x_user1_load5_hour4 
 + 1 x_user1_load5_hour3 + 1 x_user1_load5_hour2 + 1 x_user1_load5_hour1 
 + 4 x_user1_load5_hour0 + 3 x_user1_load6_hour4 + 1 x_user1_load6_hour3 
 + 1 x_user1_load7_hour4 + 3 x_user1_load7_hour3  <= 4.0
 MaxLoadConnection_user1_5: + 3 x_user1_load0_hour5 + 2 x_user1_load0_hour4 
 + 1 x_user1_load0_hour3 + 2 x_user1_load1_hour5 + 4 x_user1_load1_hour4 
 + 4 x_user1_load2_hour5 + 1 x_user1_load2_hour4 + 2 x_user1_load2_hour3 
 + 2 x_user1_load3_hour5 + 1 x_user1_load3_hour4 + 1 x_user1_load3_hour3 
 + 3 x_user1_load4_hour5 + 1 x_user1_load4_hour4 + 4 x_user1_load5_hour5 
 + 1 x_user1_load5_hour4 + 1 x_user1_load5_hour3 + 1 x_user1_load5_hour2 
 + 4 x_user1_load5_hour1 + 3 x_user1_load6_hour5 + 1 x_user1_load6_hour4 
 + 1 x_user1_load7_hour5 + 3 x_user1_load7_hour4  <= 4.0
 MaxLoadConnection_user1_6: + 3 x_user1_load0_hour6 + 2 x_user1_load0_hour5 
 + 1 x_user1_load0_hour4 + 2 x_user1_load1_hour6 + 4 x_user1_load1_hour5 
 + 4 x_user1_load2_hour6 + 1 x_user1_load2_hour5 + 2 x_user1_load2_hour4 
 + 2 x_user1_load3_hour6 + 1 x_user1_load3_hour5 + 1 x_user1_load3_hour4 
 + 3 x_user1_load4_hour6 + 1 x_user1_load4_hour5 + 4 x_user1_load5_hour6 
 + 1 x_user1_load5_hour5 + 1 x_user1_load5_hour4 + 1 x_user1_load5_hour3 
 + 4 x_user1_load5_hour2 + 3 x_user1_load6_hour6 + 1 x_user1_load6_hour5 
 + 1 x_user1_load7_hour6 + 3 x_user1_load7_hour5  <= 4.0
 MaxLoadConnection_user1_7: + 3 x_user1_load0_hour7 + 2 x_user1_load0_hour6 
 + 1 x_user1_load0_hour5 + 2 x_user1_load1_hour7 + 4 x_user1_load1_hour6 
 + 4 x_user1_load2_hour7 + 1 x_user1_load2_hour6 + 2 x_user1_load2_hour5 
 + 2 x_user1_load3_hour7 + 1 x_user1_load3_hour6 + 1 x_user1_load3_hour5 
 + 3 x_user1_load4_hour7 + 1 x_user1_load4_hour6 + 4 x_user1_load5_hour7 
 + 1 x_user1_load5_hour6 + 1 x_user1_load5_hour5 + 1 x_user1_load5_hour4 
 + 4 x_user1_load5_hour3 + 3 x_user1_load6_hour7 + 1 x_user1_load6_hour6 
 + 1 x_user1_load7_hour7 + 3 x_user1_load7_hour6  <= 4.0
 MaxLoadConnection_user1_8: + 3 x_user1_load0_hour8 + 2 x_user1_load0_hour7 
 + 1 x_user1_load0_hour6 + 2 x_user1_load1_hour8 + 4 x_user1_load1_hour7 
 + 4 x_user1_load2_hour8 + 1 x_user1_load2_hour7 + 2 x_user1_load2_hour6 
 + 2 x_user1_load3_hour8 + 1 x_user1_load3_hour7 + 1 x_user1_load3_hour6 
 + 3 x_user1_load4_hour8 + 1 x_user1_load4_hour7 + 4 x_user1_load5_hour8 
 + 1 x_user1_load5_hour7 + 1 x_user1_load5_hour6 + 1 x_user1_load5_hour5 
 + 4 x_user1_load5_hour4 + 3 x_user1_load6_hour8 + 1 x_user1_load6_hour7 
 + 1 x_user1_load7_hour8 + 3 x_user1_load7_hour7  <= 4.0
 MaxLoadConnection_user1_9: + 3 x_user1_load0_hour9 + 2 x_user1_load0_hour8 
 + 1 x_user1_load0_hour7 + 2 x_user1_load1_hour9 + 4 x_user1_load1_hour8 
 + 4 x_user1_load2_hour9 + 1 x_user1_load2_hour8 + 2 x_user1_load2_hour7 
 + 2 x_user1_load3_hour9 + 1 x_user1_load3_hour8 + 1 x_user1_load3_hour7 
 + 3 x_user1_load4_hour9 + 1 x_user1_load4_hour8 + 4 x_user1_load5_hour9 
 + 1 x_user1_load5_hour8 + 1 x_user1_load5_hour7 + 1 x_user1_load5_hour6 
 + 4 x_user1_load5_hour5 + 3 x_user1_load6_hour9 + 1 x_user1_load6_hour8 
 + 1 x_user1_load7_hour9 + 3 x_user1_load7_hour8  <= 4.0
 MaxLoadConnection_user1_10: + 3 x_user1_load0_hour10 + 2 x_user1_load0_hour9 
 + 1 x_user1_load0_hour8 + 2 x_user1_load1_hour10 + 4 x_user1_load1_hour9 
 + 4 x_user1_load2_hour10 + 1 x_user1_load2_hour9 + 2 x_user1_load2_hour8 
 + 2 x_user1_load3_hour10 + 1 x_user1_load3_hour9 + 1 x_user1_load3_hour8 
 + 3 x_user1_load4_hour10 + 1 x_user1_load4_hour9 + 4 x_user1_load5_hour10 
 + 1 x_user1_load5_hour9 + 1 x_user1_load5_hour8 + 1 x_user1_load5_hour7 
 + 4 x_user1_load5_hour6 + 3 x_user1_load6_hour10 + 1 x_user1_load6_hour9 
 + 1 x_user1_load7_hour10 + 3 x_user1_load7_hour9  <= 4.0
 MaxLoadConnection_user1_11: + 3 x_user1_load0_hour11 + 2 x_user1_load0_hour10 
 + 1 x_user1_load0_hour9 + 2 x_user1_load1_hour11 + 4 x_user1_load1_hour10 
 + 4 x_user1_load2_hour11 + 1 x_user1_load2_hour10 + 2 x_user1_load2_hour9 
 + 2 x_user1_load3_hour11 + 1 x_user1_load3_hour10 + 1 x_user1_load3_hour9 
 + 3 x_user1_load4_hour11 + 1 x_user1_load4_hour10 + 4 x_user1_load5_hour11 
 + 1 x_user1_load5_hour10 + 1 x_user1_load5_hour9 + 1 x_user1_load5_hour8 
 + 4 x_user1_load5_hour7 + 3 x_user1_load6_hour11 + 1 x_user1_load6_hour10 
 + 1 x_user1_load7_hour11 + 3 x_user1_load7_hour10  <= 4.0
 MaxLoadConnection_user1_12: + 3 x_user1_load0_hour12 + 2 x_user1_load0_hour11 
 + 1 x_user1_load0_hour10 + 2 x_user1_load1_hour12 + 4 x_user1_load1_hour11 
 + 4 x_user1_load2_hour12 + 1 x_user1_load2_hour11 + 2 x_user1_load2_hour10 
 + 2 x_user1_load3_hour12 + 1 x_user1_load3_hour11 + 1 x_user1_load3_hour10 
 + 3 x_user1_load4_hour12 + 1 x_user1_load4_hour11 + 1 x_user1_load5_hour11 
 + 1 x_user1_load5_hour10 + 1 x_user1_load5_hour9 + 4 x_user1_load5_hour8 
 + 3 x_user1_load6_hour12 + 1 x_user1_load6_hour11 + 1 x_user1_load7_hour12 
 + 3 x_user1_load7_hour11  <= 4.0
 MaxLoadConnection_user1_13: + 3 x_user1_load0_hour13 + 2 x_user1_load0_hour12 
 + 1 x_user1_load0_hour11 + 2 x_user1_load1_hour13 + 4 x_user1_load1_hour12 
 + 4 x_user1_load2_hour13 + 1 x_user1_load2_hour12 + 2 x_user1_load2_hour11 
 + 2 x_user1_load3_hour13 + 1 x_user1_load3_hour12 + 1 x_user1_load3_hour11 
 + 3 x_user1_load4_hour13 + 1 x_user1_load4_hour12 + 1 x_user1_load5_hour11 
 + 1 x_user1_load5_hour10 + 4 x_user1_load5_hour9 + 3 x_user1_load6_hour13 
 + 1 x_user1_load6_hour12 + 1 x_user1_load7_hour13 + 3 x_user1_load7_hour12 
  <= 4.0
 MaxLoadConnection_user1_14: + 2 x_user1_load0_hour13 + 1 x_user1_load0_hour12 
 + 2 x_user1_load1_hour14 + 4 x_user1_load1_hour13 + 1 x_user1_load2_hour13 
 + 2 x_user1_load2_hour12 + 1 x_user1_load3_hour13 + 1 x_user1_load3_hour12 
 + 3 x_user1_load4_hour14 + 1 x_user1_load4_hour13 + 1 x_user1_load5_hour11 
 + 4 x_user1_load5_hour10 + 3 x_user1_load6_hour14 + 1 x_user1_load6_hour13 
 + 1 x_user1_load7_hour14 + 3 x_user1_load7_hour13  <= 4.0
 MaxLoadConnection_user1_15: + 1 x_user1_load0_hour13 + 4 x_user1_load1_hour14 
 + 2 x_user1_load2_hour13 + 1 x_user1_load3_hour13 + 1 x_user1_load4_hour14 
 + 4 x_user1_load5_hour11 + 1 x_user1_load6_hour14 + 3 x_user1_load7_hour14 
  <= 4.0

Bounds

Binary
 x_user1_load0_hour0 x_user1_load0_hour1 x_user1_load0_hour2
  x_user1_load0_hour3 x_user1_load0_hour4 x_user1_load0_hour5
  x_user1_load0_hour6 x_user1_load0_hour7 x_user1_load0_hour8
  x_user1_load0_hour9 x_user1_load0_hour10 x_user1_load0_hour11
  x_user1_load0_hour12 x_user1_load0_hour13 x_user1_load1_hour0
  x_user1_load1_hour1 x_user1_load1_hour2 x_user1_load1_hour3
  x_user1_load1_hour4 x_user1_load1_hour5 x_user1_load1_hour6
  x_user1_load1_hour7 x_user1_load1_hour8 x_user1_load1_hour9
  x_user1_load1_hour10 x_user1_load1_hour11 x_user1_load1_hour12
  x_user1_load1_hour13 x_user1_load1_hour14 x_user1_load2_hour0
  x_user1_load2_hour1 x_user1_load2_hour2 x_user1_load2_hour3
  x_user1_load2_hour4 x_user1_load2_hour5 x_user1_load2_hour6
  x_user1_load2_hour7 x_user1_load2_hour8 x_user1_load2_hour9
  x_user1_load2_hour10 x_user1_load2_hour11 x_user1_load2_hour12
  x_user1_load2_hour13 x_user1_load3_hour0 x_user1_load3_hour1
  x_user1_load3_hour2 x_user1_load3_hour3 x_user1_load3_hour4
  x_user1_load3_hour5 x_user1_load3_hour6 x_user1_load3_hour7
  x_user1_load3_hour8 x_user1_load3_hour9 x_user1_load3_hour10
  x_user1_load3_hour11 x_user1_load3_hour12 x_user1_load3_hour13
  x_user1_load4_hour0 x_user1_load4_hour1 x_user1_load4_hour2
  x_user1_load4_hour3 x_user1_load4_hour4 x_user1_load4_hour5
  x_user1_load4_hour6 x_user1_load4_hour7 x_user1_load4_hour8
  x_user1_load4_hour9 x_user1_load4_hour10 x_user1_load4_hour11
  x_user1_load4_hour12 x_user1_load4_hour13 x_user1_load4_hour14
  x_user1_load5_hour0 x_user1_load5_hour1 x_user1_load5_hour2
  x_user1_load5_hour3 x_user1_load5_hour4 x_user1_load5_hour5
  x_user1_load5_hour6 x_user1_load5_hour7 x_user1_load5_hour8
  x_user1_load5_hour9 x_user1_load5_hour10 x_user1_load5_hour11
  x_user1_load6_hour0 x_user1_load6_hour1 x_user1_load6_hour2
  x_user1_load6_hour3 x_user1_load6_hour4 x_user1_load6_hour5
  x_user1_load6_hour6 x_user1_load6_hour7 x_user1_load6_hour8
  x_user1_load6_hour9 x_user1_load6_hour10 x_user1_load6_hour11
  x_user1_load6_hour12 x_user1_load6_hour13 x_user1_load6_hour14
  x_user1_load7_hour0 x_user1_load7_hour1 x_user1_load7_hour2
  x_user1_load7_hour3 x_user1_load7_hour4 x_user1_load7_hour5
  x_user1_load7_hour6 x_user1_load7_hour7 x_user1_load7_hour8
  x_user1_load7_hour9 x_user1_load7_hour10 x_user1_load7_hour11
  x_user1_load7_hour12 x_user1_load7_hour13 x_user1_load7_hour14
General

End